222819
222819
222819
222819
222819
222819
219818
219818
218375
217804
217804
214572
210696
210147
210147
209120
209120
209120
206753
206753
206753
206753
201700
201700
201700
201700
201700
201700
201700
201117
198197
196867
196814
195336
194330
194330
194330
194027
193667
188784
188784
188784
186908
184472
184472
183947
183386
183386
183386
183386
182603
182603
182270
181246
181246
181246
181246
181133
181133
181133
179093
178000
178000
177553
177553
177118
177118
175565
175565
174958
174958
174958
174958
174958
174958
174958
174958
174958
174958
174958
174041
173709
173276
172298
172298
172298
172217
172217
172217
172217
171828
171828
171828
171828
170745
169631
169631
169631
169631
168083
